NAME : in_house_7_0
TYPE : TSP
DIMENSION : 7
EDGE_WEIGHT_TYPE : EXPLICIT
EDGE_WEIGHT_FORMAT : UPPER_ROW
COMMENT : INVERSION_SHIFT=5
EDGE_WEIGHT_SECTION
45
24
44
25
41
41
14
48
44
28
44
19
12
15
15
17
43
14
23
42
30
